W=8;
H=5;

MAX_TIME=21;
MAX_TRACKS=15;

TARGET=(3,8);

TRAINS=[(3,1,RIGHT),(3,7,LEFT)];

INIT_POS=[
(3,1,STRAIGHT_RL),
(3,3,STRAIGHT_RL),
(3,6,STRAIGHT_RL),
(3,7,STRAIGHT_RL),
(3,8,STRAIGHT_RL),
];
TUNNEL_PAIRS=[
  (1, 5, DOWN, 5, 5, TOP),
];

GATES=[
(3,6,1,false),
];
ACTIVATIONS=[
(3,3,1),
];

DSWITCHES=[];

STATIONS=[];
